c generated by sgen1
c Command: ./sgen1 -unsat -n 41 
p cnf 41 92
-2 -3 -4 0
-1 -3 -4 0
-1 -2 -4 0
-1 -2 -3 0
-6 -7 -8 0
-5 -7 -8 0
-5 -6 -8 0
-5 -6 -7 0
-10 -11 -12 0
-9 -11 -12 0
-9 -10 -12 0
-9 -10 -11 0
-14 -15 -16 0
-13 -15 -16 0
-13 -14 -16 0
-13 -14 -15 0
-18 -19 -20 0
-17 -19 -20 0
-17 -18 -20 0
-17 -18 -19 0
-22 -23 -24 0
-21 -23 -24 0
-21 -22 -24 0
-21 -22 -23 0
-26 -27 -28 0
-25 -27 -28 0
-25 -26 -28 0
-25 -26 -27 0
-30 -31 -32 0
-29 -31 -32 0
-29 -30 -32 0
-29 -30 -31 0
-34 -35 -36 0
-33 -35 -36 0
-33 -34 -36 0
-33 -34 -35 0
-37 -38 -39  0
-37 -38 -40  0
-37 -38 -41  0
-37 -39 -40  0
-37 -39 -41  0
-37 -40 -41  0
-38 -39 -40  0
-38 -39 -41  0
-38 -40 -41  0
-39 -40 -41  0
27 38 6 0
9 38 6 0
9 27 6 0
9 27 38 0
17 1 22 0
10 1 22 0
10 17 22 0
10 17 1 0
20 41 25 0
30 41 25 0
30 20 25 0
30 20 41 0
23 18 40 0
36 18 40 0
36 23 40 0
36 23 18 0
4 26 29 0
33 26 29 0
33 4 29 0
33 4 26 0
31 34 5 0
12 34 5 0
12 31 5 0
12 31 34 0
16 28 8 0
24 28 8 0
24 16 8 0
24 16 28 0
7 19 15 0
3 19 15 0
3 7 15 0
3 7 19 0
11 14 35 0
39 14 35 0
39 11 35 0
39 11 14 0
32 13 2  0
32 13 37  0
32 13 21  0
32 2 37  0
32 2 21  0
32 37 21  0
13 2 37  0
13 2 21  0
13 37 21  0
2 37 21  0
